NAME          DCAP_3_4_2_500_SS130
ROWS
 N  OBJ
 L  CON1
 L  CON2
 L  CON3
 L  CON4
 L  CON5
 L  CON6
 L  CON7
 L  CON8
 L  CON9
 L  CON10
 L  CON11
 L  CON12
 E  CON13
 E  CON14
 E  CON15
 E  CON16
 E  CON17
 E  CON18
 E  CON19
 E  CON20
COLUMNS
    x[1,1]    OBJ       6.180167      CON1      1.000000    
    x[1,1]    CON7      -1.000000     CON8      -1.000000   
    x[1,2]    OBJ       5.039546      CON2      1.000000    
    x[1,2]    CON8      -1.000000   
    x[2,1]    OBJ       6.732585      CON3      1.000000    
    x[2,1]    CON9      -1.000000     CON10     -1.000000   
    x[2,2]    OBJ       7.443064      CON4      1.000000    
    x[2,2]    CON10     -1.000000   
    x[3,1]    OBJ       6.563535      CON5      1.000000    
    x[3,1]    CON11     -1.000000     CON12     -1.000000   
    x[3,2]    OBJ       6.054841      CON6      1.000000    
    x[3,2]    CON12     -1.000000   
    MARKER    'MARKER'                'INTORG'
    u[1,1]    OBJ       48.076654     CON1      -1.000000   
    u[1,2]    OBJ       49.466655     CON2      -1.000000   
    u[2,1]    OBJ       49.996186     CON3      -1.000000   
    u[2,2]    OBJ       32.230043     CON4      -1.000000   
    u[3,1]    OBJ       20.066487     CON5      -1.000000   
    u[3,2]    OBJ       27.484319     CON6      -1.000000   
    y[1,1,1]  OBJ       6.802901      CON7      0.894443    
    y[1,1,1]  CON13     1.000000    
    y[1,1,2]  OBJ       8.743905      CON8      0.892606    
    y[1,1,2]  CON14     1.000000    
    y[1,2,1]  OBJ       9.337790      CON7      1.130240    
    y[1,2,1]  CON15     1.000000    
    y[1,2,2]  OBJ       7.826966      CON8      1.109716    
    y[1,2,2]  CON16     1.000000    
    y[1,3,1]  OBJ       5.115256      CON7      1.019460    
    y[1,3,1]  CON17     1.000000    
    y[1,3,2]  OBJ       6.679431      CON8      1.442128    
    y[1,3,2]  CON18     1.000000    
    y[1,4,1]  OBJ       6.313942      CON7      1.077074    
    y[1,4,1]  CON19     1.000000    
    y[1,4,2]  OBJ       7.053079      CON8      0.952196    
    y[1,4,2]  CON20     1.000000    
    y[2,1,1]  OBJ       8.713902      CON9      0.894443    
    y[2,1,1]  CON13     1.000000    
    y[2,1,2]  OBJ       7.826835      CON10     0.892606    
    y[2,1,2]  CON14     1.000000    
    y[2,2,1]  OBJ       5.653332      CON9      1.130240    
    y[2,2,1]  CON15     1.000000    
    y[2,2,2]  OBJ       7.928082      CON10     1.109716    
    y[2,2,2]  CON16     1.000000    
    y[2,3,1]  OBJ       7.438250      CON9      1.019460    
    y[2,3,1]  CON17     1.000000    
    y[2,3,2]  OBJ       7.246603      CON10     1.442128    
    y[2,3,2]  CON18     1.000000    
    y[2,4,1]  OBJ       8.664908      CON9      1.077074    
    y[2,4,1]  CON19     1.000000    
    y[2,4,2]  OBJ       5.858362      CON10     0.952196    
    y[2,4,2]  CON20     1.000000    
    y[3,1,1]  OBJ       5.552819      CON11     0.894443    
    y[3,1,1]  CON13     1.000000    
    y[3,1,2]  OBJ       9.170198      CON12     0.892606    
    y[3,1,2]  CON14     1.000000    
    y[3,2,1]  OBJ       5.903984      CON11     1.130240    
    y[3,2,1]  CON15     1.000000    
    y[3,2,2]  OBJ       6.522625      CON12     1.109716    
    y[3,2,2]  CON16     1.000000    
    y[3,3,1]  OBJ       9.812694      CON11     1.019460    
    y[3,3,1]  CON17     1.000000    
    y[3,3,2]  OBJ       6.613124      CON12     1.442128    
    y[3,3,2]  CON18     1.000000    
    y[3,4,1]  OBJ       7.402099      CON11     1.077074    
    y[3,4,1]  CON19     1.000000    
    y[3,4,2]  OBJ       7.023556      CON12     0.952196    
    y[3,4,2]  CON20     1.000000    
    z[1,1]    OBJ       766.600541    CON13     1.000000    
    z[1,2]    OBJ       502.595675    CON14     1.000000    
    z[2,1]    OBJ       583.446110    CON15     1.000000    
    z[2,2]    OBJ       688.243895    CON16     1.000000    
    z[3,1]    OBJ       562.028652    CON17     1.000000    
    z[3,2]    OBJ       915.650710    CON18     1.000000    
    z[4,1]    OBJ       680.422780    CON19     1.000000    
    z[4,2]    OBJ       540.616122    CON20     1.000000    
    MARKER    'MARKER'                 'INTEND'
RHS
    RHS       CON1      -0.000000     CON2      -0.000000   
    RHS       CON3      -0.000000     CON4      -0.000000   
    RHS       CON5      -0.000000     CON6      -0.000000   
    RHS       CON7      -0.000000     CON8      -0.000000   
    RHS       CON9      -0.000000     CON10     -0.000000   
    RHS       CON11     -0.000000     CON12     -0.000000   
    RHS       CON13     1.000000      CON14     1.000000    
    RHS       CON15     1.000000      CON16     1.000000    
    RHS       CON17     1.000000      CON18     1.000000    
    RHS       CON19     1.000000      CON20     1.000000    
BOUNDS
 BV BOUND     u[1,1]  
 BV BOUND     u[1,2]  
 BV BOUND     u[2,1]  
 BV BOUND     u[2,2]  
 BV BOUND     u[3,1]  
 BV BOUND     u[3,2]  
 BV BOUND     y[1,1,1]
 BV BOUND     y[1,1,2]
 BV BOUND     y[1,2,1]
 BV BOUND     y[1,2,2]
 BV BOUND     y[1,3,1]
 BV BOUND     y[1,3,2]
 BV BOUND     y[1,4,1]
 BV BOUND     y[1,4,2]
 BV BOUND     y[2,1,1]
 BV BOUND     y[2,1,2]
 BV BOUND     y[2,2,1]
 BV BOUND     y[2,2,2]
 BV BOUND     y[2,3,1]
 BV BOUND     y[2,3,2]
 BV BOUND     y[2,4,1]
 BV BOUND     y[2,4,2]
 BV BOUND     y[3,1,1]
 BV BOUND     y[3,1,2]
 BV BOUND     y[3,2,1]
 BV BOUND     y[3,2,2]
 BV BOUND     y[3,3,1]
 BV BOUND     y[3,3,2]
 BV BOUND     y[3,4,1]
 BV BOUND     y[3,4,2]
 BV BOUND     z[1,1]  
 BV BOUND     z[1,2]  
 BV BOUND     z[2,1]  
 BV BOUND     z[2,2]  
 BV BOUND     z[3,1]  
 BV BOUND     z[3,2]  
 BV BOUND     z[4,1]  
 BV BOUND     z[4,2]  
ENDATA
